objective value:                                  -87
t_x12                                               1 	(obj:-100)
t_y12_241                                           1 	(obj:1)
t_y12_232                                           1 	(obj:1)
t_y12_206                                           1 	(obj:1)
t_y12_242                                           1 	(obj:1)
t_y12_167                                           1 	(obj:1)
t_y2_12                                             1 	(obj:1)
t_y12_154                                           1 	(obj:1)
t_y12_47                                            1 	(obj:1)
t_y12_260                                           1 	(obj:1)
t_y12_105                                           1 	(obj:1)
t_y12_13                                            1 	(obj:1)
t_y12_155                                           1 	(obj:1)
t_y12_182                                           1 	(obj:1)
